S = 4;
start = [|0,0,3,6,0,1,0,0,2,16,0,0,13,12,0,0|
0,0,0,0,6,12,3,8,7,9,4,0,0,0,14,0|
5,12,0,0,13,0,0,0,0,8,0,15,0,2,7,9|
0,0,0,16,2,0,15,14,5,12,0,0,0,0,0,0|
0,0,0,15,10,5,0,0,14,11,2,0,0,6,4,7|
16,0,0,5,0,0,6,0,9,0,0,0,0,14,0,0|
0,10,0,3,0,14,12,0,4,6,0,0,0,0,0,0|
0,9,0,0,4,0,0,11,0,0,8,7,0,0,0,0|
11,0,0,0,0,0,0,0,0,0,0,6,0,0,0,0|
0,7,6,0,0,0,2,5,10,4,0,9,14,15,0,0|
0,0,0,0,1,0,0,4,8,14,0,5,0,11,0,2|
14,0,15,4,0,9,0,0,0,13,0,0,0,0,0,16|
10,16,0,7,0,8,5,1,6,0,14,0,0,0,9,15|
4,6,0,0,15,3,0,0,12,0,0,0,5,1,16,10|
15,0,8,2,9,0,16,0,1,5,0,4,12,0,0,0|
0,0,5,0,0,0,0,7,0,0,0,0,0,0,0,14|];